50727
259,309,581,828,830,847,955,998,1083,1126,1134,1153,1159,1202,1317,1417,1451,1457,1770,1795,1830,1834,1852,2009,2146,2174,2281,2300,2337,2547,2559,2744,2841,2896,2922,2963,3032,3058,3216,3479,3486,3497,3525,3544,3562,3624,3752,3825,3835,3836,4026,4078,4131,4362,4508,4518,4795,4932,5079,5167,5213,5274,5341,5459,5483,5492,5657,5680,5723,5768,5811,5849,6096,6197,6212,6296,6335,6376,6434,6639,6664,6694,6754,6773,6831,7068,7075,7097,7164,7222,7321,7330,7471,7603,7667,7671,7723,7734,7904,8090,8091,8238,8518,8557,8568,8773,8774,8840,8986,9033,9234,9485,9537,9611,9667,9752,9784,9889,9969,9971
